7 97 19 56 15 26 96 55 18 28 46 86 33 49 64 95 21 60 43 44 8 81 1 77 40 48 16 24 54 3 9 61 38 2 50 6 73 53 87 59 69 91 92 36 13 66 29 99 63 35 45 75 84 10 22 72 78 67 68 58 27 41 89 82 79 76 42 17 83 34 70 0 52 4 93 12 65 39 85 14 23 37 11 74 30 98 47 20 88 25 94 5 71 62 51 90 32 57 31 80 

